Route 1: 163 28 6 47 14 132 153 49 142 92 4 140 54 89 100 37 9 12 139 59 143 173 188 29 21 166 161 119 16 198 129 194 41 154 158 55 81 33 107 82 66 17 174 34 2 76 1 60 8 13 75 97 67 30 64
Route 2: 182 57 24 131 48 102 179 7 68 190 167 196 18 15 124 180 43 150 187 171 78 130 162 63 3 103 200 156 184 183 110 136 72 22 106 27 80 91 145 116 95 44 178 90 79 73 141 193 19 146 93 39 120 135 185 96 175
Route 3: 195 165 85 177 168 65 112 45 56 108 32 23 31 133 147 40 98 169 152 51 111 61 114 38 117 86 109 189 125 151 160 50 192 101 74 52 87 134 71 115 121 70 126 157 11 148 83 36
Route 4: 199 84 42 172 197 5 62 181 35 164 77 25 10 26 159 149 170 104 122 176 20 46 138 186 58 113 69 191 88 144 123 137
Route 5: 127 118 105 155 128 99 94 53
Vehicles: 5
Distance: 3865.33
